
Value of objective function: 86.00000000

Actual values of the variables:
v1                              0
v2                              1
v4                              1
v5                              1
v6                              1
v7                              0
v8                              1
v9                              1
v10                             0
v12                             1
v13                             0
v14                             1
v15                             1
v16                             0
v17                             1
v18                             0
v19                             1
v20                             1
v21                             0
v22                             0
v23                             1
v24                             0
v25                             0
v27                             1
v28                             0
v29                             0
v30                             0
v31                             1
v32                             1
v33                             1
v34                             1
v35                             0
v36                             1
v38                             1
v39                             0
v40                             0
v41                             0
v42                             0
v43                             0
v44                             0
v45                             0
v46                             1
v47                             1
v48                             0
v49                             1
v50                             0
v3                              0
v37                             0
v26                             0
v11                             0
